NAME : A-n54-k7
COMMENT : (Augerat et al, Min no of trucks: 7, Best value: 1167)
TYPE : CVRP
DIMENSION : 54
EDGE_WEIGHT_TYPE : EUC_2D 
CAPACITY : 100
NODE_COORD_SECTION 
 1 61 5
 2 85 53
 3 17 57
 4 49 93
 5 69 11
 6 87 15
 7 49 39
 8 87 23
 9 19 83
 10 69 87
 11 69 43
 12 49 67
 13 17 61
 14 45 61
 15 21 53
 16 71 37
 17 53 23
 18 77 63
 19 89 7
 20 21 83
 21 77 25
 22 85 95
 23 43 93
 24 75 25
 25 1 43
 26 7 7
 27 81 69
 28 23 57
 29 81 15
 30 77 35
 31 49 3
 32 21 93
 33 41 37
 34 71 91
 35 31 13
 36 69 33
 37 91 47
 38 13 69
 39 65 75
 40 91 27
 41 9 85
 42 15 19
 43 7 37
 44 61 11
 45 59 83
 46 85 69
 47 15 29
 48 1 13
 49 1 83
 50 85 31
 51 95 25
 52 5 33
 53 51 11
 54 51 85
DEMAND_SECTION 
1 0 
2 24 
3 9 
4 15 
5 17 
6 2 
7 19 
8 10 
9 17 
10 20 
11 16 
12 8 
13 12 
14 3 
15 23 
16 4 
17 23 
18 20 
19 2 
20 19 
21 2 
22 23 
23 23 
24 5 
25 12 
26 15 
27 9 
28 13 
29 18 
30 16 
31 7 
32 6 
33 2 
34 8 
35 2 
36 2 
37 4 
38 13 
39 18 
40 9 
41 19 
42 3 
43 14 
44 19 
45 21 
46 4 
47 6 
48 22 
49 13 
50 10 
51 18 
52 5 
53 9 
54 36 
DEPOT_SECTION 
 1  
 -1  
EOF 
